c generated by sgen
p cnf 69 148
-2 -3 -4 0
-1 -3 -4 0
-1 -2 -4 0
-1 -2 -3 0
-6 -7 -8 0
-5 -7 -8 0
-5 -6 -8 0
-5 -6 -7 0
-10 -11 -12 0
-9 -11 -12 0
-9 -10 -12 0
-9 -10 -11 0
-14 -15 -16 0
-13 -15 -16 0
-13 -14 -16 0
-13 -14 -15 0
-18 -19 -20 0
-17 -19 -20 0
-17 -18 -20 0
-17 -18 -19 0
-22 -23 -24 0
-21 -23 -24 0
-21 -22 -24 0
-21 -22 -23 0
-26 -27 -28 0
-25 -27 -28 0
-25 -26 -28 0
-25 -26 -27 0
-30 -31 -32 0
-29 -31 -32 0
-29 -30 -32 0
-29 -30 -31 0
-34 -35 -36 0
-33 -35 -36 0
-33 -34 -36 0
-33 -34 -35 0
-38 -39 -40 0
-37 -39 -40 0
-37 -38 -40 0
-37 -38 -39 0
-42 -43 -44 0
-41 -43 -44 0
-41 -42 -44 0
-41 -42 -43 0
-46 -47 -48 0
-45 -47 -48 0
-45 -46 -48 0
-45 -46 -47 0
-50 -51 -52 0
-49 -51 -52 0
-49 -50 -52 0
-49 -50 -51 0
-54 -55 -56 0
-53 -55 -56 0
-53 -54 -56 0
-53 -54 -55 0
-58 -59 -60 0
-57 -59 -60 0
-57 -58 -60 0
-57 -58 -59 0
-62 -63 -64 0
-61 -63 -64 0
-61 -62 -64 0
-61 -62 -63 0
-65 -66 -67 0
-65 -66 -68 0
-65 -66 -69 0
-65 -67 -68 0
-65 -67 -69 0
-65 -68 -69 0
-66 -67 -68 0
-66 -67 -69 0
-66 -68 -69 0
-67 -68 -69 0
46 31 62 0
14 31 62 0
14 46 62 0
14 46 31 0
41 25 24 0
49 25 24 0
49 41 24 0
49 41 25 0
47 59 54 0
1 59 54 0
1 47 54 0
1 47 59 0
35 4 32 0
44 4 32 0
44 35 32 0
44 35 4 0
9 43 18 0
15 43 18 0
15 9 18 0
15 9 43 0
36 27 13 0
69 27 13 0
69 36 13 0
69 36 27 0
28 8 48 0
20 8 48 0
20 28 48 0
20 28 8 0
67 3 21 0
10 3 21 0
10 67 21 0
10 67 3 0
66 5 29 0
58 5 29 0
58 66 29 0
58 66 5 0
42 39 68 0
56 39 68 0
56 42 68 0
56 42 39 0
50 37 45 0
33 37 45 0
33 50 45 0
33 50 37 0
61 65 19 0
52 65 19 0
52 61 19 0
52 61 65 0
17 53 30 0
23 53 30 0
23 17 30 0
23 17 53 0
63 2 38 0
7 2 38 0
7 63 38 0
7 63 2 0
51 55 12 0
6 55 12 0
6 51 12 0
6 51 55 0
40 16 22 0
57 16 22 0
57 40 22 0
57 40 16 0
34 11 60 0
34 11 64 0
34 11 26 0
34 60 64 0
34 60 26 0
34 64 26 0
11 60 64 0
11 60 26 0
11 64 26 0
60 64 26 0
